p cnf 361 1
361 0
w 1 0.687133
w 2 1 0.560838
w 2 -1 0.930531
w 3 2 1
w 3 -2 0
w 4 3 1
w 4 -3 0
w 5 4 0
w 5 -4 1
w 6 5 0.410866
w 6 -5 0.837872
w 7 6 1
w 7 -6 0
w 8 7 1
w 8 -7 0
w 9 8 1
w 9 -8 0
w 10 9 1
w 10 -9 0
w 11 10 0
w 11 -10 1
w 12 11 0
w 12 -11 1
w 13 12 1
w 13 -12 0
w 14 13 0
w 14 -13 1
w 15 14 0.172344
w 15 -14 0.0889307
w 16 15 0.733183
w 16 -15 0.0194621
w 17 16 1
w 17 -16 0
w 18 17 1
w 18 -17 0
w 19 18 0
w 19 -18 1
w 20 1 1
w 20 -1 0
w 21 20 2 1
w 21 20 -2 1
w 21 -20 2 1
w 21 -20 -2 0
w 22 21 3 0
w 22 21 -3 1
w 22 -21 3 0
w 22 -21 -3 0
w 23 22 4 0.552121
w 23 22 -4 0.280875
w 23 -22 4 0.980717
w 23 -22 -4 0.80585
w 24 23 5 0
w 24 23 -5 1
w 24 -23 5 0
w 24 -23 -5 0
w 25 24 6 0
w 25 24 -6 0
w 25 -24 6 0
w 25 -24 -6 1
w 26 25 7 0
w 26 25 -7 1
w 26 -25 7 1
w 26 -25 -7 0
w 27 26 8 0.598403
w 27 26 -8 0.425246
w 27 -26 8 0.443671
w 27 -26 -8 0.946241
w 28 27 9 1
w 28 27 -9 0
w 28 -27 9 1
w 28 -27 -9 0
w 29 28 10 1
w 29 28 -10 1
w 29 -28 10 0
w 29 -28 -10 1
w 30 29 11 0.470942
w 30 29 -11 0.527516
w 30 -29 11 0.750167
w 30 -29 -11 0.354305
w 31 30 12 0
w 31 30 -12 0
w 31 -30 12 1
w 31 -30 -12 0
w 32 31 13 1
w 32 31 -13 0
w 32 -31 13 1
w 32 -31 -13 0
w 33 32 14 1
w 33 32 -14 0
w 33 -32 14 1
w 33 -32 -14 0
w 34 33 15 0.164289
w 34 33 -15 0.967541
w 34 -33 15 0.451237
w 34 -33 -15 0.355641
w 35 34 16 0.00868362
w 35 34 -16 0.0991132
w 35 -34 16 0.278448
w 35 -34 -16 0.546847
w 36 35 17 0
w 36 35 -17 1
w 36 -35 17 0
w 36 -35 -17 0
w 37 36 18 1
w 37 36 -18 0
w 37 -36 18 1
w 37 -36 -18 1
w 38 37 19 0
w 38 37 -19 0
w 38 -37 19 1
w 38 -37 -19 1
w 39 20 0
w 39 -20 1
w 40 39 21 0.944579
w 40 39 -21 0.519422
w 40 -39 21 0.404101
w 40 -39 -21 0.738706
w 41 40 22 0
w 41 40 -22 1
w 41 -40 22 1
w 41 -40 -22 1
w 42 41 23 1
w 42 41 -23 1
w 42 -41 23 1
w 42 -41 -23 0
w 43 42 24 0.763263
w 43 42 -24 0.962852
w 43 -42 24 0.896835
w 43 -42 -24 0.135356
w 44 43 25 1
w 44 43 -25 1
w 44 -43 25 1
w 44 -43 -25 0
w 45 44 26 0.755978
w 45 44 -26 0.655045
w 45 -44 26 0.534344
w 45 -44 -26 0.852671
w 46 45 27 0
w 46 45 -27 1
w 46 -45 27 1
w 46 -45 -27 1
w 47 46 28 0
w 47 46 -28 1
w 47 -46 28 1
w 47 -46 -28 1
w 48 47 29 0
w 48 47 -29 0
w 48 -47 29 1
w 48 -47 -29 0
w 49 48 30 0.0308604
w 49 48 -30 0.43326
w 49 -48 30 0.795021
w 49 -48 -30 0.927696
w 50 49 31 1
w 50 49 -31 0
w 50 -49 31 0
w 50 -49 -31 0
w 51 50 32 1
w 51 50 -32 1
w 51 -50 32 1
w 51 -50 -32 0
w 52 51 33 1
w 52 51 -33 0
w 52 -51 33 1
w 52 -51 -33 0
w 53 52 34 1
w 53 52 -34 0
w 53 -52 34 0
w 53 -52 -34 1
w 54 53 35 0
w 54 53 -35 1
w 54 -53 35 1
w 54 -53 -35 1
w 55 54 36 0
w 55 54 -36 1
w 55 -54 36 0
w 55 -54 -36 1
w 56 55 37 1
w 56 55 -37 0
w 56 -55 37 1
w 56 -55 -37 1
w 57 56 38 0
w 57 56 -38 1
w 57 -56 38 1
w 57 -56 -38 1
w 58 39 0.835234
w 58 -39 0.748264
w 59 58 40 0
w 59 58 -40 0
w 59 -58 40 1
w 59 -58 -40 1
w 60 59 41 0.322751
w 60 59 -41 0.095192
w 60 -59 41 0.210124
w 60 -59 -41 0.313068
w 61 60 42 0.636367
w 61 60 -42 0.444587
w 61 -60 42 0.112708
w 61 -60 -42 0.894779
w 62 61 43 0
w 62 61 -43 1
w 62 -61 43 0
w 62 -61 -43 1
w 63 62 44 1
w 63 62 -44 1
w 63 -62 44 0
w 63 -62 -44 1
w 64 63 45 0
w 64 63 -45 1
w 64 -63 45 1
w 64 -63 -45 0
w 65 64 46 1
w 65 64 -46 0
w 65 -64 46 1
w 65 -64 -46 0
w 66 65 47 0.85557
w 66 65 -47 0.226094
w 66 -65 47 0.194499
w 66 -65 -47 0.168637
w 67 66 48 0.830866
w 67 66 -48 0.613225
w 67 -66 48 0.107754
w 67 -66 -48 0.725644
w 68 67 49 0
w 68 67 -49 1
w 68 -67 49 1
w 68 -67 -49 0
w 69 68 50 0.0772952
w 69 68 -50 0.639315
w 69 -68 50 0.330212
w 69 -68 -50 0.803985
w 70 69 51 0.957308
w 70 69 -51 0.855963
w 70 -69 51 0.0268752
w 70 -69 -51 0.419637
w 71 70 52 0
w 71 70 -52 1
w 71 -70 52 1
w 71 -70 -52 1
w 72 71 53 1
w 72 71 -53 0
w 72 -71 53 0
w 72 -71 -53 1
w 73 72 54 1
w 73 72 -54 1
w 73 -72 54 1
w 73 -72 -54 0
w 74 73 55 0
w 74 73 -55 0
w 74 -73 55 0
w 74 -73 -55 1
w 75 74 56 0.0688818
w 75 74 -56 0.103674
w 75 -74 56 0.534005
w 75 -74 -56 0.399094
w 76 75 57 0.382645
w 76 75 -57 0.356402
w 76 -75 57 0.763623
w 76 -75 -57 0.40952
w 77 58 0.419828
w 77 -58 0.128223
w 78 77 59 0.231256
w 78 77 -59 0.379743
w 78 -77 59 0.316107
w 78 -77 -59 0.0270581
w 79 78 60 1
w 79 78 -60 1
w 79 -78 60 1
w 79 -78 -60 0
w 80 79 61 0.651515
w 80 79 -61 0.0986901
w 80 -79 61 0.385336
w 80 -79 -61 0.760659
w 81 80 62 0.606001
w 81 80 -62 0.787038
w 81 -80 62 0.655237
w 81 -80 -62 0.674883
w 82 81 63 0.189243
w 82 81 -63 0.0739774
w 82 -81 63 0.798372
w 82 -81 -63 0.571888
w 83 82 64 1
w 83 82 -64 0
w 83 -82 64 0
w 83 -82 -64 1
w 84 83 65 1
w 84 83 -65 1
w 84 -83 65 1
w 84 -83 -65 0
w 85 84 66 1
w 85 84 -66 0
w 85 -84 66 1
w 85 -84 -66 1
w 86 85 67 1
w 86 85 -67 0
w 86 -85 67 1
w 86 -85 -67 0
w 87 86 68 0
w 87 86 -68 1
w 87 -86 68 0
w 87 -86 -68 0
w 88 87 69 0.518861
w 88 87 -69 0.836219
w 88 -87 69 0.627067
w 88 -87 -69 0.090749
w 89 88 70 0
w 89 88 -70 1
w 89 -88 70 1
w 89 -88 -70 1
w 90 89 71 1
w 90 89 -71 0
w 90 -89 71 0
w 90 -89 -71 1
w 91 90 72 0
w 91 90 -72 0
w 91 -90 72 1
w 91 -90 -72 1
w 92 91 73 0
w 92 91 -73 0
w 92 -91 73 1
w 92 -91 -73 1
w 93 92 74 0.947394
w 93 92 -74 0.546334
w 93 -92 74 0.865354
w 93 -92 -74 0.277012
w 94 93 75 0
w 94 93 -75 1
w 94 -93 75 0
w 94 -93 -75 0
w 95 94 76 0
w 95 94 -76 1
w 95 -94 76 1
w 95 -94 -76 0
w 96 77 0
w 96 -77 1
w 97 96 78 0
w 97 96 -78 1
w 97 -96 78 0
w 97 -96 -78 0
w 98 97 79 1
w 98 97 -79 1
w 98 -97 79 0
w 98 -97 -79 0
w 99 98 80 0
w 99 98 -80 1
w 99 -98 80 0
w 99 -98 -80 0
w 100 99 81 0
w 100 99 -81 1
w 100 -99 81 1
w 100 -99 -81 0
w 101 100 82 0.00701799
w 101 100 -82 0.42956
w 101 -100 82 0.790798
w 101 -100 -82 0.41841
w 102 101 83 0.749577
w 102 101 -83 0.302819
w 102 -101 83 0.620798
w 102 -101 -83 0.890146
w 103 102 84 0.685823
w 103 102 -84 0.701877
w 103 -102 84 0.554951
w 103 -102 -84 0.374949
w 104 103 85 0
w 104 103 -85 0
w 104 -103 85 1
w 104 -103 -85 1
w 105 104 86 1
w 105 104 -86 1
w 105 -104 86 1
w 105 -104 -86 0
w 106 105 87 0
w 106 105 -87 1
w 106 -105 87 0
w 106 -105 -87 0
w 107 106 88 0
w 107 106 -88 1
w 107 -106 88 0
w 107 -106 -88 0
w 108 107 89 1
w 108 107 -89 0
w 108 -107 89 0
w 108 -107 -89 1
w 109 108 90 0
w 109 108 -90 0
w 109 -108 90 0
w 109 -108 -90 1
w 110 109 91 1
w 110 109 -91 1
w 110 -109 91 1
w 110 -109 -91 0
w 111 110 92 0
w 111 110 -92 1
w 111 -110 92 0
w 111 -110 -92 1
w 112 111 93 1
w 112 111 -93 1
w 112 -111 93 1
w 112 -111 -93 0
w 113 112 94 0
w 113 112 -94 0
w 113 -112 94 1
w 113 -112 -94 1
w 114 113 95 0.739198
w 114 113 -95 0.713816
w 114 -113 95 0.576133
w 114 -113 -95 0.429079
w 115 96 0
w 115 -96 1
w 116 115 97 0.567131
w 116 115 -97 0.116545
w 116 -115 97 0.555436
w 116 -115 -97 0.00570849
w 117 116 98 0.25176
w 117 116 -98 0.450512
w 117 -116 98 0.242753
w 117 -116 -98 0.442095
w 118 117 99 0
w 118 117 -99 1
w 118 -117 99 0
w 118 -117 -99 1
w 119 118 100 0.613841
w 119 118 -100 0.46913
w 119 -118 100 0.544233
w 119 -118 -100 0.15461
w 120 119 101 1
w 120 119 -101 1
w 120 -119 101 0
w 120 -119 -101 1
w 121 120 102 0
w 121 120 -102 0
w 121 -120 102 1
w 121 -120 -102 1
w 122 121 103 0
w 122 121 -103 1
w 122 -121 103 1
w 122 -121 -103 1
w 123 122 104 0
w 123 122 -104 0
w 123 -122 104 0
w 123 -122 -104 1
w 124 123 105 0
w 124 123 -105 0
w 124 -123 105 0
w 124 -123 -105 1
w 125 124 106 0
w 125 124 -106 0
w 125 -124 106 1
w 125 -124 -106 0
w 126 125 107 0
w 126 125 -107 1
w 126 -125 107 1
w 126 -125 -107 1
w 127 126 108 1
w 127 126 -108 0
w 127 -126 108 0
w 127 -126 -108 0
w 128 127 109 1
w 128 127 -109 0
w 128 -127 109 1
w 128 -127 -109 0
w 129 128 110 0
w 129 128 -110 0
w 129 -128 110 0
w 129 -128 -110 1
w 130 129 111 0.660079
w 130 129 -111 0.0463941
w 130 -129 111 0.886969
w 130 -129 -111 0.0363681
w 131 130 112 1
w 131 130 -112 0
w 131 -130 112 1
w 131 -130 -112 1
w 132 131 113 1
w 132 131 -113 1
w 132 -131 113 0
w 132 -131 -113 0
w 133 132 114 1
w 133 132 -114 0
w 133 -132 114 1
w 133 -132 -114 1
w 134 115 0.591865
w 134 -115 0.530579
w 135 134 116 0.805366
w 135 134 -116 0.749305
w 135 -134 116 0.579249
w 135 -134 -116 0.62385
w 136 135 117 0
w 136 135 -117 0
w 136 -135 117 0
w 136 -135 -117 1
w 137 136 118 0
w 137 136 -118 1
w 137 -136 118 1
w 137 -136 -118 1
w 138 137 119 0.35651
w 138 137 -119 0.953138
w 138 -137 119 0.251937
w 138 -137 -119 0.807345
w 139 138 120 0
w 139 138 -120 0
w 139 -138 120 0
w 139 -138 -120 1
w 140 139 121 0.953424
w 140 139 -121 0.59944
w 140 -139 121 0.589509
w 140 -139 -121 0.545288
w 141 140 122 0
w 141 140 -122 1
w 141 -140 122 1
w 141 -140 -122 0
w 142 141 123 0.463675
w 142 141 -123 0.365405
w 142 -141 123 0.463914
w 142 -141 -123 0.0226054
w 143 142 124 1
w 143 142 -124 0
w 143 -142 124 1
w 143 -142 -124 1
w 144 143 125 0
w 144 143 -125 1
w 144 -143 125 1
w 144 -143 -125 0
w 145 144 126 0.833484
w 145 144 -126 0.244396
w 145 -144 126 0.865907
w 145 -144 -126 0.0553219
w 146 145 127 0
w 146 145 -127 1
w 146 -145 127 1
w 146 -145 -127 1
w 147 146 128 1
w 147 146 -128 0
w 147 -146 128 0
w 147 -146 -128 1
w 148 147 129 0.438633
w 148 147 -129 0.952446
w 148 -147 129 0.343106
w 148 -147 -129 0.461239
w 149 148 130 1
w 149 148 -130 1
w 149 -148 130 1
w 149 -148 -130 0
w 150 149 131 1
w 150 149 -131 0
w 150 -149 131 0
w 150 -149 -131 1
w 151 150 132 0.371572
w 151 150 -132 0.262605
w 151 -150 132 0.658531
w 151 -150 -132 0.426894
w 152 151 133 1
w 152 151 -133 0
w 152 -151 133 0
w 152 -151 -133 0
w 153 134 0.690026
w 153 -134 0.0872201
w 154 153 135 0.664984
w 154 153 -135 0.674261
w 154 -153 135 0.773553
w 154 -153 -135 0.103618
w 155 154 136 0
w 155 154 -136 1
w 155 -154 136 0
w 155 -154 -136 0
w 156 155 137 1
w 156 155 -137 0
w 156 -155 137 0
w 156 -155 -137 1
w 157 156 138 1
w 157 156 -138 0
w 157 -156 138 1
w 157 -156 -138 0
w 158 157 139 1
w 158 157 -139 1
w 158 -157 139 0
w 158 -157 -139 1
w 159 158 140 0
w 159 158 -140 1
w 159 -158 140 0
w 159 -158 -140 0
w 160 159 141 0
w 160 159 -141 0
w 160 -159 141 0
w 160 -159 -141 1
w 161 160 142 1
w 161 160 -142 1
w 161 -160 142 0
w 161 -160 -142 1
w 162 161 143 0.177795
w 162 161 -143 0.86036
w 162 -161 143 0.203317
w 162 -161 -143 0.929741
w 163 162 144 0
w 163 162 -144 1
w 163 -162 144 0
w 163 -162 -144 0
w 164 163 145 1
w 164 163 -145 0
w 164 -163 145 1
w 164 -163 -145 0
w 165 164 146 1
w 165 164 -146 0
w 165 -164 146 0
w 165 -164 -146 1
w 166 165 147 0
w 166 165 -147 1
w 166 -165 147 1
w 166 -165 -147 1
w 167 166 148 0.683937
w 167 166 -148 0.896106
w 167 -166 148 0.517571
w 167 -166 -148 0.699319
w 168 167 149 1
w 168 167 -149 1
w 168 -167 149 0
w 168 -167 -149 0
w 169 168 150 0
w 169 168 -150 1
w 169 -168 150 1
w 169 -168 -150 1
w 170 169 151 0
w 170 169 -151 0
w 170 -169 151 1
w 170 -169 -151 1
w 171 170 152 0
w 171 170 -152 1
w 171 -170 152 0
w 171 -170 -152 0
w 172 153 0.613979
w 172 -153 0.853147
w 173 172 154 0
w 173 172 -154 1
w 173 -172 154 1
w 173 -172 -154 1
w 174 173 155 1
w 174 173 -155 0
w 174 -173 155 0
w 174 -173 -155 0
w 175 174 156 1
w 175 174 -156 1
w 175 -174 156 1
w 175 -174 -156 0
w 176 175 157 0
w 176 175 -157 0
w 176 -175 157 1
w 176 -175 -157 1
w 177 176 158 0.200864
w 177 176 -158 0.538015
w 177 -176 158 0.982997
w 177 -176 -158 0.636656
w 178 177 159 1
w 178 177 -159 0
w 178 -177 159 1
w 178 -177 -159 0
w 179 178 160 0
w 179 178 -160 1
w 179 -178 160 1
w 179 -178 -160 1
w 180 179 161 1
w 180 179 -161 1
w 180 -179 161 0
w 180 -179 -161 1
w 181 180 162 1
w 181 180 -162 0
w 181 -180 162 1
w 181 -180 -162 0
w 182 181 163 0
w 182 181 -163 1
w 182 -181 163 0
w 182 -181 -163 1
w 183 182 164 1
w 183 182 -164 1
w 183 -182 164 0
w 183 -182 -164 0
w 184 183 165 1
w 184 183 -165 1
w 184 -183 165 0
w 184 -183 -165 0
w 185 184 166 0
w 185 184 -166 0
w 185 -184 166 1
w 185 -184 -166 1
w 186 185 167 1
w 186 185 -167 0
w 186 -185 167 0
w 186 -185 -167 0
w 187 186 168 0.583293
w 187 186 -168 0.657168
w 187 -186 168 0.848337
w 187 -186 -168 0.152954
w 188 187 169 1
w 188 187 -169 1
w 188 -187 169 0
w 188 -187 -169 1
w 189 188 170 0.947024
w 189 188 -170 0.782588
w 189 -188 170 0.469053
w 189 -188 -170 0.102245
w 190 189 171 0.717202
w 190 189 -171 0.317612
w 190 -189 171 0.340655
w 190 -189 -171 0.739118
w 191 172 0
w 191 -172 1
w 192 191 173 1
w 192 191 -173 1
w 192 -191 173 0
w 192 -191 -173 1
w 193 192 174 0.834007
w 193 192 -174 0.429152
w 193 -192 174 0.123739
w 193 -192 -174 0.736791
w 194 193 175 1
w 194 193 -175 1
w 194 -193 175 0
w 194 -193 -175 1
w 195 194 176 0
w 195 194 -176 1
w 195 -194 176 1
w 195 -194 -176 1
w 196 195 177 0
w 196 195 -177 0
w 196 -195 177 0
w 196 -195 -177 1
w 197 196 178 0
w 197 196 -178 1
w 197 -196 178 1
w 197 -196 -178 0
w 198 197 179 0.828666
w 198 197 -179 0.602293
w 198 -197 179 0.134419
w 198 -197 -179 0.285654
w 199 198 180 0
w 199 198 -180 1
w 199 -198 180 0
w 199 -198 -180 1
w 200 199 181 0
w 200 199 -181 0
w 200 -199 181 1
w 200 -199 -181 1
w 201 200 182 1
w 201 200 -182 0
w 201 -200 182 1
w 201 -200 -182 0
w 202 201 183 1
w 202 201 -183 1
w 202 -201 183 1
w 202 -201 -183 0
w 203 202 184 1
w 203 202 -184 0
w 203 -202 184 1
w 203 -202 -184 0
w 204 203 185 0.748417
w 204 203 -185 0.31611
w 204 -203 185 0.504825
w 204 -203 -185 0.882836
w 205 204 186 0
w 205 204 -186 0
w 205 -204 186 1
w 205 -204 -186 1
w 206 205 187 0
w 206 205 -187 1
w 206 -205 187 1
w 206 -205 -187 1
w 207 206 188 1
w 207 206 -188 0
w 207 -206 188 0
w 207 -206 -188 0
w 208 207 189 1
w 208 207 -189 0
w 208 -207 189 0
w 208 -207 -189 0
w 209 208 190 0
w 209 208 -190 1
w 209 -208 190 0
w 209 -208 -190 1
w 210 191 1
w 210 -191 0
w 211 210 192 1
w 211 210 -192 0
w 211 -210 192 0
w 211 -210 -192 0
w 212 211 193 0
w 212 211 -193 1
w 212 -211 193 1
w 212 -211 -193 1
w 213 212 194 0
w 213 212 -194 0
w 213 -212 194 1
w 213 -212 -194 0
w 214 213 195 1
w 214 213 -195 1
w 214 -213 195 0
w 214 -213 -195 0
w 215 214 196 0.619062
w 215 214 -196 0.72667
w 215 -214 196 0.382022
w 215 -214 -196 0.903061
w 216 215 197 1
w 216 215 -197 0
w 216 -215 197 0
w 216 -215 -197 0
w 217 216 198 1
w 217 216 -198 1
w 217 -216 198 0
w 217 -216 -198 1
w 218 217 199 0
w 218 217 -199 0
w 218 -217 199 1
w 218 -217 -199 0
w 219 218 200 0.585549
w 219 218 -200 0.94469
w 219 -218 200 0.605446
w 219 -218 -200 0.124331
w 220 219 201 1
w 220 219 -201 1
w 220 -219 201 0
w 220 -219 -201 1
w 221 220 202 0
w 221 220 -202 1
w 221 -220 202 0
w 221 -220 -202 0
w 222 221 203 1
w 222 221 -203 1
w 222 -221 203 0
w 222 -221 -203 1
w 223 222 204 0
w 223 222 -204 0
w 223 -222 204 1
w 223 -222 -204 0
w 224 223 205 1
w 224 223 -205 0
w 224 -223 205 1
w 224 -223 -205 0
w 225 224 206 1
w 225 224 -206 1
w 225 -224 206 1
w 225 -224 -206 0
w 226 225 207 0
w 226 225 -207 1
w 226 -225 207 0
w 226 -225 -207 0
w 227 226 208 0
w 227 226 -208 1
w 227 -226 208 1
w 227 -226 -208 0
w 228 227 209 0
w 228 227 -209 1
w 228 -227 209 1
w 228 -227 -209 1
w 229 210 1
w 229 -210 0
w 230 229 211 1
w 230 229 -211 1
w 230 -229 211 1
w 230 -229 -211 0
w 231 230 212 0
w 231 230 -212 1
w 231 -230 212 0
w 231 -230 -212 1
w 232 231 213 1
w 232 231 -213 0
w 232 -231 213 0
w 232 -231 -213 1
w 233 232 214 1
w 233 232 -214 1
w 233 -232 214 1
w 233 -232 -214 0
w 234 233 215 0
w 234 233 -215 1
w 234 -233 215 1
w 234 -233 -215 1
w 235 234 216 0.329156
w 235 234 -216 0.181304
w 235 -234 216 0.777015
w 235 -234 -216 0.00342976
w 236 235 217 1
w 236 235 -217 0
w 236 -235 217 0
w 236 -235 -217 0
w 237 236 218 0.983429
w 237 236 -218 0.895603
w 237 -236 218 0.665591
w 237 -236 -218 0.30964
w 238 237 219 0
w 238 237 -219 1
w 238 -237 219 0
w 238 -237 -219 0
w 239 238 220 1
w 239 238 -220 1
w 239 -238 220 1
w 239 -238 -220 0
w 240 239 221 0
w 240 239 -221 1
w 240 -239 221 0
w 240 -239 -221 1
w 241 240 222 0
w 241 240 -222 1
w 241 -240 222 1
w 241 -240 -222 0
w 242 241 223 0.108527
w 242 241 -223 0.398045
w 242 -241 223 0.258675
w 242 -241 -223 0.862969
w 243 242 224 0.226329
w 243 242 -224 0.846397
w 243 -242 224 0.795144
w 243 -242 -224 0.891919
w 244 243 225 1
w 244 243 -225 1
w 244 -243 225 0
w 244 -243 -225 0
w 245 244 226 0
w 245 244 -226 1
w 245 -244 226 0
w 245 -244 -226 1
w 246 245 227 1
w 246 245 -227 1
w 246 -245 227 1
w 246 -245 -227 0
w 247 246 228 1
w 247 246 -228 0
w 247 -246 228 1
w 247 -246 -228 0
w 248 229 0
w 248 -229 1
w 249 248 230 1
w 249 248 -230 0
w 249 -248 230 0
w 249 -248 -230 0
w 250 249 231 1
w 250 249 -231 0
w 250 -249 231 1
w 250 -249 -231 0
w 251 250 232 1
w 251 250 -232 0
w 251 -250 232 1
w 251 -250 -232 0
w 252 251 233 0
w 252 251 -233 1
w 252 -251 233 1
w 252 -251 -233 1
w 253 252 234 0.265683
w 253 252 -234 0.662132
w 253 -252 234 0.278924
w 253 -252 -234 0.872255
w 254 253 235 0.519802
w 254 253 -235 0.189833
w 254 -253 235 0.542123
w 254 -253 -235 0.611342
w 255 254 236 1
w 255 254 -236 1
w 255 -254 236 1
w 255 -254 -236 0
w 256 255 237 1
w 256 255 -237 1
w 256 -255 237 0
w 256 -255 -237 1
w 257 256 238 0
w 257 256 -238 1
w 257 -256 238 0
w 257 -256 -238 0
w 258 257 239 0.916848
w 258 257 -239 0.847662
w 258 -257 239 0.813902
w 258 -257 -239 0.802126
w 259 258 240 0
w 259 258 -240 1
w 259 -258 240 0
w 259 -258 -240 1
w 260 259 241 0
w 260 259 -241 1
w 260 -259 241 1
w 260 -259 -241 1
w 261 260 242 1
w 261 260 -242 0
w 261 -260 242 1
w 261 -260 -242 0
w 262 261 243 1
w 262 261 -243 1
w 262 -261 243 0
w 262 -261 -243 0
w 263 262 244 0
w 263 262 -244 0
w 263 -262 244 1
w 263 -262 -244 0
w 264 263 245 1
w 264 263 -245 0
w 264 -263 245 1
w 264 -263 -245 0
w 265 264 246 0
w 265 264 -246 1
w 265 -264 246 1
w 265 -264 -246 1
w 266 265 247 0.592307
w 266 265 -247 0.0534304
w 266 -265 247 0.0463523
w 266 -265 -247 0.383677
w 267 248 1
w 267 -248 0
w 268 267 249 0
w 268 267 -249 0
w 268 -267 249 0
w 268 -267 -249 1
w 269 268 250 0
w 269 268 -250 1
w 269 -268 250 1
w 269 -268 -250 0
w 270 269 251 0.234501
w 270 269 -251 0.845178
w 270 -269 251 0.406523
w 270 -269 -251 0.585607
w 271 270 252 0
w 271 270 -252 0
w 271 -270 252 1
w 271 -270 -252 1
w 272 271 253 0
w 272 271 -253 0
w 272 -271 253 1
w 272 -271 -253 1
w 273 272 254 0
w 273 272 -254 1
w 273 -272 254 1
w 273 -272 -254 0
w 274 273 255 1
w 274 273 -255 0
w 274 -273 255 1
w 274 -273 -255 1
w 275 274 256 0.2638
w 275 274 -256 0.331309
w 275 -274 256 0.100039
w 275 -274 -256 0.0868891
w 276 275 257 0
w 276 275 -257 0
w 276 -275 257 1
w 276 -275 -257 1
w 277 276 258 0.783693
w 277 276 -258 0.16727
w 277 -276 258 0.657612
w 277 -276 -258 0.131258
w 278 277 259 1
w 278 277 -259 1
w 278 -277 259 0
w 278 -277 -259 0
w 279 278 260 1
w 279 278 -260 0
w 279 -278 260 1
w 279 -278 -260 0
w 280 279 261 0
w 280 279 -261 1
w 280 -279 261 1
w 280 -279 -261 1
w 281 280 262 1
w 281 280 -262 0
w 281 -280 262 1
w 281 -280 -262 1
w 282 281 263 0
w 282 281 -263 1
w 282 -281 263 0
w 282 -281 -263 1
w 283 282 264 1
w 283 282 -264 1
w 283 -282 264 0
w 283 -282 -264 0
w 284 283 265 1
w 284 283 -265 1
w 284 -283 265 1
w 284 -283 -265 0
w 285 284 266 1
w 285 284 -266 0
w 285 -284 266 1
w 285 -284 -266 1
w 286 267 0.958982
w 286 -267 0.494323
w 287 286 268 1
w 287 286 -268 0
w 287 -286 268 1
w 287 -286 -268 1
w 288 287 269 0.223842
w 288 287 -269 0.950011
w 288 -287 269 0.58743
w 288 -287 -269 0.779378
w 289 288 270 1
w 289 288 -270 1
w 289 -288 270 0
w 289 -288 -270 0
w 290 289 271 1
w 290 289 -271 1
w 290 -289 271 0
w 290 -289 -271 0
w 291 290 272 0
w 291 290 -272 0
w 291 -290 272 1
w 291 -290 -272 0
w 292 291 273 1
w 292 291 -273 1
w 292 -291 273 0
w 292 -291 -273 0
w 293 292 274 1
w 293 292 -274 1
w 293 -292 274 1
w 293 -292 -274 0
w 294 293 275 0
w 294 293 -275 1
w 294 -293 275 0
w 294 -293 -275 0
w 295 294 276 1
w 295 294 -276 0
w 295 -294 276 1
w 295 -294 -276 1
w 296 295 277 0
w 296 295 -277 0
w 296 -295 277 1
w 296 -295 -277 1
w 297 296 278 1
w 297 296 -278 0
w 297 -296 278 1
w 297 -296 -278 1
w 298 297 279 0
w 298 297 -279 1
w 298 -297 279 0
w 298 -297 -279 0
w 299 298 280 1
w 299 298 -280 0
w 299 -298 280 0
w 299 -298 -280 0
w 300 299 281 1
w 300 299 -281 0
w 300 -299 281 1
w 300 -299 -281 1
w 301 300 282 1
w 301 300 -282 0
w 301 -300 282 0
w 301 -300 -282 1
w 302 301 283 1
w 302 301 -283 0
w 302 -301 283 1
w 302 -301 -283 0
w 303 302 284 0.355964
w 303 302 -284 0.740127
w 303 -302 284 0.973619
w 303 -302 -284 0.896447
w 304 303 285 0
w 304 303 -285 1
w 304 -303 285 1
w 304 -303 -285 0
w 305 286 0.111969
w 305 -286 0.976652
w 306 305 287 0.447368
w 306 305 -287 0.466665
w 306 -305 287 0.932171
w 306 -305 -287 0.247591
w 307 306 288 1
w 307 306 -288 0
w 307 -306 288 1
w 307 -306 -288 0
w 308 307 289 0.172683
w 308 307 -289 0.687946
w 308 -307 289 0.201253
w 308 -307 -289 0.704863
w 309 308 290 0
w 309 308 -290 0
w 309 -308 290 0
w 309 -308 -290 1
w 310 309 291 1
w 310 309 -291 0
w 310 -309 291 0
w 310 -309 -291 1
w 311 310 292 0
w 311 310 -292 0
w 311 -310 292 1
w 311 -310 -292 1
w 312 311 293 0
w 312 311 -293 1
w 312 -311 293 0
w 312 -311 -293 0
w 313 312 294 0
w 313 312 -294 1
w 313 -312 294 1
w 313 -312 -294 1
w 314 313 295 0
w 314 313 -295 0
w 314 -313 295 0
w 314 -313 -295 1
w 315 314 296 1
w 315 314 -296 1
w 315 -314 296 1
w 315 -314 -296 0
w 316 315 297 0.78667
w 316 315 -297 0.268271
w 316 -315 297 0.00256134
w 316 -315 -297 0.161778
w 317 316 298 1
w 317 316 -298 1
w 317 -316 298 0
w 317 -316 -298 0
w 318 317 299 0
w 318 317 -299 0
w 318 -317 299 0
w 318 -317 -299 1
w 319 318 300 0
w 319 318 -300 0
w 319 -318 300 1
w 319 -318 -300 1
w 320 319 301 1
w 320 319 -301 0
w 320 -319 301 0
w 320 -319 -301 0
w 321 320 302 0.0768618
w 321 320 -302 0.00679345
w 321 -320 302 0.385292
w 321 -320 -302 0.959573
w 322 321 303 0.171961
w 322 321 -303 0.227844
w 322 -321 303 0.79991
w 322 -321 -303 0.333739
w 323 322 304 0
w 323 322 -304 0
w 323 -322 304 0
w 323 -322 -304 1
w 324 305 0.575434
w 324 -305 0.958298
w 325 324 306 0.185561
w 325 324 -306 0.168943
w 325 -324 306 0.850078
w 325 -324 -306 0.618733
w 326 325 307 0.103432
w 326 325 -307 0.294391
w 326 -325 307 0.887583
w 326 -325 -307 0.777334
w 327 326 308 0.41938
w 327 326 -308 0.576648
w 327 -326 308 0.977344
w 327 -326 -308 0.426173
w 328 327 309 0.936917
w 328 327 -309 0.223522
w 328 -327 309 0.133902
w 328 -327 -309 0.164761
w 329 328 310 1
w 329 328 -310 1
w 329 -328 310 0
w 329 -328 -310 1
w 330 329 311 0
w 330 329 -311 1
w 330 -329 311 1
w 330 -329 -311 0
w 331 330 312 1
w 331 330 -312 0
w 331 -330 312 0
w 331 -330 -312 0
w 332 331 313 1
w 332 331 -313 0
w 332 -331 313 0
w 332 -331 -313 0
w 333 332 314 0
w 333 332 -314 0
w 333 -332 314 1
w 333 -332 -314 1
w 334 333 315 1
w 334 333 -315 0
w 334 -333 315 0
w 334 -333 -315 1
w 335 334 316 1
w 335 334 -316 0
w 335 -334 316 0
w 335 -334 -316 1
w 336 335 317 0
w 336 335 -317 1
w 336 -335 317 0
w 336 -335 -317 0
w 337 336 318 0.347891
w 337 336 -318 0.267342
w 337 -336 318 0.733894
w 337 -336 -318 0.885554
w 338 337 319 0
w 338 337 -319 0
w 338 -337 319 1
w 338 -337 -319 0
w 339 338 320 1
w 339 338 -320 0
w 339 -338 320 0
w 339 -338 -320 0
w 340 339 321 1
w 340 339 -321 0
w 340 -339 321 1
w 340 -339 -321 0
w 341 340 322 0.54457
w 341 340 -322 0.891415
w 341 -340 322 0.47833
w 341 -340 -322 0.817209
w 342 341 323 0
w 342 341 -323 1
w 342 -341 323 0
w 342 -341 -323 0
w 343 324 1
w 343 -324 0
w 344 343 325 0.497291
w 344 343 -325 0.846255
w 344 -343 325 0.836326
w 344 -343 -325 0.0661171
w 345 344 326 0
w 345 344 -326 1
w 345 -344 326 0
w 345 -344 -326 1
w 346 345 327 0
w 346 345 -327 1
w 346 -345 327 0
w 346 -345 -327 0
w 347 346 328 0.25041
w 347 346 -328 0.759046
w 347 -346 328 0.589315
w 347 -346 -328 0.191085
w 348 347 329 1
w 348 347 -329 0
w 348 -347 329 1
w 348 -347 -329 1
w 349 348 330 0.513728
w 349 348 -330 0.237401
w 349 -348 330 0.446218
w 349 -348 -330 0.743677
w 350 349 331 0
w 350 349 -331 1
w 350 -349 331 0
w 350 -349 -331 1
w 351 350 332 0
w 351 350 -332 1
w 351 -350 332 1
w 351 -350 -332 0
w 352 351 333 0.321445
w 352 351 -333 0.817709
w 352 -351 333 0.955439
w 352 -351 -333 0.912755
w 353 352 334 0.926372
w 353 352 -334 0.163165
w 353 -352 334 0.708053
w 353 -352 -334 0.515687
w 354 353 335 0
w 354 353 -335 0
w 354 -353 335 0
w 354 -353 -335 1
w 355 354 336 0.867003
w 355 354 -336 0.646222
w 355 -354 336 0.196824
w 355 -354 -336 0.313221
w 356 355 337 0
w 356 355 -337 1
w 356 -355 337 1
w 356 -355 -337 0
w 357 356 338 0.937953
w 357 356 -338 0.518128
w 357 -356 338 0.730775
w 357 -356 -338 0.0690483
w 358 357 339 1
w 358 357 -339 1
w 358 -357 339 0
w 358 -357 -339 0
w 359 358 340 1
w 359 358 -340 0
w 359 -358 340 0
w 359 -358 -340 1
w 360 359 341 0.820664
w 360 359 -341 0.869541
w 360 -359 341 0.916022
w 360 -359 -341 0.84433
w 361 360 342 1
w 361 360 -342 0
w 361 -360 342 1
w 361 -360 -342 0